p cnf 361 1
361 0
w 1 0.699283
w 2 1 0.1048
w 2 -1 0.307633
w 3 2 1
w 3 -2 0
w 4 3 1
w 4 -3 0
w 5 4 0.852118
w 5 -4 0.173857
w 6 5 0.113767
w 6 -5 0.041312
w 7 6 0.168218
w 7 -6 0.254014
w 8 7 0.132623
w 8 -7 0.225676
w 9 8 0.361967
w 9 -8 0.214371
w 10 9 0.708151
w 10 -9 0.464826
w 11 10 1
w 11 -10 0
w 12 11 0.225312
w 12 -11 0.115122
w 13 12 0.153226
w 13 -12 0.219922
w 14 13 0.64792
w 14 -13 0.616162
w 15 14 1
w 15 -14 0
w 16 15 1
w 16 -15 0
w 17 16 0.0160634
w 17 -16 0.244204
w 18 17 0.662311
w 18 -17 0.412422
w 19 18 0
w 19 -18 1
w 20 1 0.311299
w 20 -1 0.765306
w 21 20 2 0.525671
w 21 20 -2 0.326747
w 21 -20 2 0.615164
w 21 -20 -2 0.990497
w 22 21 3 0.950672
w 22 21 -3 0.904525
w 22 -21 3 0.983469
w 22 -21 -3 0.0657941
w 23 22 4 0.136695
w 23 22 -4 0.285717
w 23 -22 4 0.438782
w 23 -22 -4 0.784614
w 24 23 5 0.7171
w 24 23 -5 0.401055
w 24 -23 5 0.352304
w 24 -23 -5 0.847537
w 25 24 6 1
w 25 24 -6 1
w 25 -24 6 0
w 25 -24 -6 1
w 26 25 7 0.108584
w 26 25 -7 0.226109
w 26 -25 7 0.0492085
w 26 -25 -7 0.419883
w 27 26 8 0.956221
w 27 26 -8 0.945554
w 27 -26 8 0.318161
w 27 -26 -8 0.571384
w 28 27 9 0.0763174
w 28 27 -9 0.522056
w 28 -27 9 0.840576
w 28 -27 -9 0.0597863
w 29 28 10 0.358413
w 29 28 -10 0.196481
w 29 -28 10 0.873567
w 29 -28 -10 0.797194
w 30 29 11 0.775445
w 30 29 -11 0.514295
w 30 -29 11 0.38215
w 30 -29 -11 0.127749
w 31 30 12 0
w 31 30 -12 1
w 31 -30 12 1
w 31 -30 -12 1
w 32 31 13 0.705046
w 32 31 -13 0.752902
w 32 -31 13 0.00694582
w 32 -31 -13 0.124929
w 33 32 14 0.963167
w 33 32 -14 0.0704831
w 33 -32 14 0.0624771
w 33 -32 -14 0.534551
w 34 33 15 0
w 34 33 -15 1
w 34 -33 15 1
w 34 -33 -15 1
w 35 34 16 1
w 35 34 -16 1
w 35 -34 16 0
w 35 -34 -16 1
w 36 35 17 0
w 36 35 -17 1
w 36 -35 17 1
w 36 -35 -17 0
w 37 36 18 0
w 37 36 -18 0
w 37 -36 18 1
w 37 -36 -18 1
w 38 37 19 0
w 38 37 -19 1
w 38 -37 19 1
w 38 -37 -19 1
w 39 20 0.260266
w 39 -20 0.828729
w 40 39 21 1
w 40 39 -21 0
w 40 -39 21 0
w 40 -39 -21 1
w 41 40 22 0.341197
w 41 40 -22 0.495881
w 41 -40 22 0.887893
w 41 -40 -22 0.736259
w 42 41 23 1
w 42 41 -23 1
w 42 -41 23 0
w 42 -41 -23 1
w 43 42 24 0.72859
w 43 42 -24 0.286464
w 43 -42 24 0.202531
w 43 -42 -24 0.645923
w 44 43 25 0.130801
w 44 43 -25 0.0900492
w 44 -43 25 0.909035
w 44 -43 -25 0.764118
w 45 44 26 0
w 45 44 -26 0
w 45 -44 26 1
w 45 -44 -26 1
w 46 45 27 1
w 46 45 -27 1
w 46 -45 27 0
w 46 -45 -27 1
w 47 46 28 1
w 47 46 -28 0
w 47 -46 28 1
w 47 -46 -28 0
w 48 47 29 1
w 48 47 -29 1
w 48 -47 29 0
w 48 -47 -29 1
w 49 48 30 1
w 49 48 -30 1
w 49 -48 30 0
w 49 -48 -30 0
w 50 49 31 1
w 50 49 -31 1
w 50 -49 31 0
w 50 -49 -31 0
w 51 50 32 0.681439
w 51 50 -32 0.0753624
w 51 -50 32 0.0552685
w 51 -50 -32 0.909861
w 52 51 33 0.40636
w 52 51 -33 0.142105
w 52 -51 33 0.802981
w 52 -51 -33 0.592714
w 53 52 34 0.915623
w 53 52 -34 0.46144
w 53 -52 34 0.233021
w 53 -52 -34 0.524146
w 54 53 35 1
w 54 53 -35 1
w 54 -53 35 0
w 54 -53 -35 1
w 55 54 36 1
w 55 54 -36 0
w 55 -54 36 0
w 55 -54 -36 1
w 56 55 37 1
w 56 55 -37 0
w 56 -55 37 0
w 56 -55 -37 1
w 57 56 38 1
w 57 56 -38 0
w 57 -56 38 1
w 57 -56 -38 1
w 58 39 0.0868326
w 58 -39 0.16684
w 59 58 40 0.679547
w 59 58 -40 0.683804
w 59 -58 40 0.4266
w 59 -58 -40 0.140987
w 60 59 41 0.950746
w 60 59 -41 0.359046
w 60 -59 41 0.602163
w 60 -59 -41 0.0973186
w 61 60 42 0
w 61 60 -42 0
w 61 -60 42 0
w 61 -60 -42 1
w 62 61 43 0.405918
w 62 61 -43 0.861268
w 62 -61 43 0.947525
w 62 -61 -43 0.627561
w 63 62 44 0.38096
w 63 62 -44 0.718431
w 63 -62 44 0.57877
w 63 -62 -44 0.495834
w 64 63 45 0.259242
w 64 63 -45 0.520569
w 64 -63 45 0.592659
w 64 -63 -45 0.346074
w 65 64 46 0.103636
w 65 64 -46 0.0256214
w 65 -64 46 0.371212
w 65 -64 -46 0.530237
w 66 65 47 0
w 66 65 -47 1
w 66 -65 47 0
w 66 -65 -47 1
w 67 66 48 0.749988
w 67 66 -48 0.742433
w 67 -66 48 0.751992
w 67 -66 -48 0.894457
w 68 67 49 0
w 68 67 -49 0
w 68 -67 49 1
w 68 -67 -49 1
w 69 68 50 0.0950231
w 69 68 -50 0.988929
w 69 -68 50 0.646367
w 69 -68 -50 0.673793
w 70 69 51 0
w 70 69 -51 0
w 70 -69 51 1
w 70 -69 -51 1
w 71 70 52 1
w 71 70 -52 1
w 71 -70 52 1
w 71 -70 -52 0
w 72 71 53 0.471339
w 72 71 -53 0.351991
w 72 -71 53 0.238545
w 72 -71 -53 0.996993
w 73 72 54 0
w 73 72 -54 1
w 73 -72 54 0
w 73 -72 -54 0
w 74 73 55 0
w 74 73 -55 1
w 74 -73 55 0
w 74 -73 -55 1
w 75 74 56 0.501294
w 75 74 -56 0.82618
w 75 -74 56 0.516115
w 75 -74 -56 0.175087
w 76 75 57 0
w 76 75 -57 0
w 76 -75 57 1
w 76 -75 -57 0
w 77 58 1
w 77 -58 0
w 78 77 59 1
w 78 77 -59 1
w 78 -77 59 0
w 78 -77 -59 0
w 79 78 60 0
w 79 78 -60 1
w 79 -78 60 1
w 79 -78 -60 0
w 80 79 61 0.651774
w 80 79 -61 0.779953
w 80 -79 61 0.54871
w 80 -79 -61 0.916588
w 81 80 62 1
w 81 80 -62 1
w 81 -80 62 1
w 81 -80 -62 0
w 82 81 63 0.876386
w 82 81 -63 0.999239
w 82 -81 63 0.983608
w 82 -81 -63 0.923531
w 83 82 64 1
w 83 82 -64 0
w 83 -82 64 0
w 83 -82 -64 0
w 84 83 65 1
w 84 83 -65 0
w 84 -83 65 0
w 84 -83 -65 1
w 85 84 66 0.042516
w 85 84 -66 0.510141
w 85 -84 66 0.473973
w 85 -84 -66 0.25363
w 86 85 67 1
w 86 85 -67 0
w 86 -85 67 1
w 86 -85 -67 0
w 87 86 68 0
w 87 86 -68 1
w 87 -86 68 0
w 87 -86 -68 0
w 88 87 69 1
w 88 87 -69 0
w 88 -87 69 0
w 88 -87 -69 1
w 89 88 70 0.295946
w 89 88 -70 0.845461
w 89 -88 70 0.7112
w 89 -88 -70 0.790536
w 90 89 71 1
w 90 89 -71 1
w 90 -89 71 0
w 90 -89 -71 1
w 91 90 72 0
w 91 90 -72 1
w 91 -90 72 1
w 91 -90 -72 0
w 92 91 73 0
w 92 91 -73 0
w 92 -91 73 1
w 92 -91 -73 0
w 93 92 74 0.350297
w 93 92 -74 0.113827
w 93 -92 74 0.494175
w 93 -92 -74 0.539643
w 94 93 75 0.187478
w 94 93 -75 0.728228
w 94 -93 75 0.221375
w 94 -93 -75 0.804312
w 95 94 76 0
w 95 94 -76 0
w 95 -94 76 1
w 95 -94 -76 0
w 96 77 0.791797
w 96 -77 0.757418
w 97 96 78 0.118733
w 97 96 -78 0.100466
w 97 -96 78 0.465702
w 97 -96 -78 0.95581
w 98 97 79 0.613823
w 98 97 -79 0.210299
w 98 -97 79 0.860255
w 98 -97 -79 0.795527
w 99 98 80 0
w 99 98 -80 1
w 99 -98 80 1
w 99 -98 -80 0
w 100 99 81 1
w 100 99 -81 1
w 100 -99 81 0
w 100 -99 -81 0
w 101 100 82 1
w 101 100 -82 1
w 101 -100 82 0
w 101 -100 -82 0
w 102 101 83 1
w 102 101 -83 0
w 102 -101 83 0
w 102 -101 -83 0
w 103 102 84 0
w 103 102 -84 1
w 103 -102 84 1
w 103 -102 -84 1
w 104 103 85 0
w 104 103 -85 0
w 104 -103 85 1
w 104 -103 -85 1
w 105 104 86 0
w 105 104 -86 1
w 105 -104 86 1
w 105 -104 -86 1
w 106 105 87 0.429072
w 106 105 -87 0.520478
w 106 -105 87 0.731015
w 106 -105 -87 0.238745
w 107 106 88 0
w 107 106 -88 0
w 107 -106 88 1
w 107 -106 -88 0
w 108 107 89 0
w 108 107 -89 0
w 108 -107 89 1
w 108 -107 -89 0
w 109 108 90 0.243058
w 109 108 -90 0.291804
w 109 -108 90 0.940212
w 109 -108 -90 0.108856
w 110 109 91 1
w 110 109 -91 1
w 110 -109 91 1
w 110 -109 -91 0
w 111 110 92 0.649568
w 111 110 -92 0.789426
w 111 -110 92 0.158819
w 111 -110 -92 0.567701
w 112 111 93 0.587891
w 112 111 -93 0.0881787
w 112 -111 93 0.516158
w 112 -111 -93 0.826636
w 113 112 94 0
w 113 112 -94 0
w 113 -112 94 1
w 113 -112 -94 1
w 114 113 95 1
w 114 113 -95 1
w 114 -113 95 1
w 114 -113 -95 0
w 115 96 1
w 115 -96 0
w 116 115 97 0
w 116 115 -97 0
w 116 -115 97 1
w 116 -115 -97 0
w 117 116 98 0.100346
w 117 116 -98 0.048421
w 117 -116 98 0.878344
w 117 -116 -98 0.963968
w 118 117 99 0.66777
w 118 117 -99 0.122787
w 118 -117 99 0.265691
w 118 -117 -99 0.452913
w 119 118 100 0.353869
w 119 118 -100 0.969071
w 119 -118 100 0.537314
w 119 -118 -100 0.752348
w 120 119 101 0.633742
w 120 119 -101 0.0552606
w 120 -119 101 0.0727114
w 120 -119 -101 0.0978468
w 121 120 102 1
w 121 120 -102 0
w 121 -120 102 0
w 121 -120 -102 0
w 122 121 103 1
w 122 121 -103 0
w 122 -121 103 1
w 122 -121 -103 1
w 123 122 104 0.906114
w 123 122 -104 0.547438
w 123 -122 104 0.91226
w 123 -122 -104 0.784458
w 124 123 105 0.610249
w 124 123 -105 0.452228
w 124 -123 105 0.634194
w 124 -123 -105 0.87594
w 125 124 106 0.344872
w 125 124 -106 0.229809
w 125 -124 106 0.874211
w 125 -124 -106 0.882186
w 126 125 107 0.553981
w 126 125 -107 0.515928
w 126 -125 107 0.0374173
w 126 -125 -107 0.626693
w 127 126 108 0.40967
w 127 126 -108 0.0769989
w 127 -126 108 0.86248
w 127 -126 -108 0.941879
w 128 127 109 0.0252937
w 128 127 -109 0.877102
w 128 -127 109 0.638785
w 128 -127 -109 0.0424273
w 129 128 110 0
w 129 128 -110 0
w 129 -128 110 1
w 129 -128 -110 0
w 130 129 111 0.38304
w 130 129 -111 0.0251326
w 130 -129 111 0.185227
w 130 -129 -111 0.0172337
w 131 130 112 0.0903671
w 131 130 -112 0.362106
w 131 -130 112 0.130881
w 131 -130 -112 0.964578
w 132 131 113 1
w 132 131 -113 0
w 132 -131 113 0
w 132 -131 -113 1
w 133 132 114 0
w 133 132 -114 0
w 133 -132 114 1
w 133 -132 -114 0
w 134 115 0.206013
w 134 -115 0.261768
w 135 134 116 0
w 135 134 -116 1
w 135 -134 116 1
w 135 -134 -116 0
w 136 135 117 0
w 136 135 -117 0
w 136 -135 117 0
w 136 -135 -117 1
w 137 136 118 0.170962
w 137 136 -118 0.975207
w 137 -136 118 0.68851
w 137 -136 -118 0.261329
w 138 137 119 1
w 138 137 -119 1
w 138 -137 119 1
w 138 -137 -119 0
w 139 138 120 0.341824
w 139 138 -120 0.0828844
w 139 -138 120 0.88972
w 139 -138 -120 0.715818
w 140 139 121 0.111972
w 140 139 -121 0.952292
w 140 -139 121 0.145014
w 140 -139 -121 0.317985
w 141 140 122 0
w 141 140 -122 0
w 141 -140 122 1
w 141 -140 -122 1
w 142 141 123 0.770992
w 142 141 -123 0.802355
w 142 -141 123 0.272511
w 142 -141 -123 0.756728
w 143 142 124 0.0599495
w 143 142 -124 0.92769
w 143 -142 124 0.735535
w 143 -142 -124 0.74846
w 144 143 125 1
w 144 143 -125 0
w 144 -143 125 0
w 144 -143 -125 1
w 145 144 126 0.159394
w 145 144 -126 0.996276
w 145 -144 126 0.583165
w 145 -144 -126 0.0491142
w 146 145 127 0.226175
w 146 145 -127 0.161086
w 146 -145 127 0.664386
w 146 -145 -127 0.371189
w 147 146 128 0
w 147 146 -128 0
w 147 -146 128 1
w 147 -146 -128 1
w 148 147 129 1
w 148 147 -129 0
w 148 -147 129 1
w 148 -147 -129 1
w 149 148 130 0.685415
w 149 148 -130 0.48452
w 149 -148 130 0.852112
w 149 -148 -130 0.42095
w 150 149 131 0
w 150 149 -131 1
w 150 -149 131 0
w 150 -149 -131 1
w 151 150 132 1
w 151 150 -132 0
w 151 -150 132 0
w 151 -150 -132 0
w 152 151 133 0.856619
w 152 151 -133 0.110452
w 152 -151 133 0.825652
w 152 -151 -133 0.521005
w 153 134 0
w 153 -134 1
w 154 153 135 1
w 154 153 -135 1
w 154 -153 135 0
w 154 -153 -135 1
w 155 154 136 0.424768
w 155 154 -136 0.523206
w 155 -154 136 0.88827
w 155 -154 -136 0.110183
w 156 155 137 1
w 156 155 -137 1
w 156 -155 137 0
w 156 -155 -137 0
w 157 156 138 0
w 157 156 -138 1
w 157 -156 138 0
w 157 -156 -138 1
w 158 157 139 0.317707
w 158 157 -139 0.226926
w 158 -157 139 0.517591
w 158 -157 -139 0.174326
w 159 158 140 0
w 159 158 -140 1
w 159 -158 140 1
w 159 -158 -140 0
w 160 159 141 1
w 160 159 -141 1
w 160 -159 141 0
w 160 -159 -141 0
w 161 160 142 0.854781
w 161 160 -142 0.120421
w 161 -160 142 0.216385
w 161 -160 -142 0.743051
w 162 161 143 1
w 162 161 -143 0
w 162 -161 143 0
w 162 -161 -143 0
w 163 162 144 0
w 163 162 -144 0
w 163 -162 144 1
w 163 -162 -144 0
w 164 163 145 0.355543
w 164 163 -145 0.277555
w 164 -163 145 0.0759314
w 164 -163 -145 0.873135
w 165 164 146 0
w 165 164 -146 0
w 165 -164 146 0
w 165 -164 -146 1
w 166 165 147 0.241992
w 166 165 -147 0.428299
w 166 -165 147 0.458888
w 166 -165 -147 0.132926
w 167 166 148 0
w 167 166 -148 0
w 167 -166 148 1
w 167 -166 -148 0
w 168 167 149 0
w 168 167 -149 0
w 168 -167 149 1
w 168 -167 -149 0
w 169 168 150 1
w 169 168 -150 0
w 169 -168 150 1
w 169 -168 -150 1
w 170 169 151 0
w 170 169 -151 0
w 170 -169 151 0
w 170 -169 -151 1
w 171 170 152 0.426713
w 171 170 -152 0.859878
w 171 -170 152 0.134313
w 171 -170 -152 0.291058
w 172 153 0
w 172 -153 1
w 173 172 154 0.234797
w 173 172 -154 0.686564
w 173 -172 154 0.902013
w 173 -172 -154 0.222504
w 174 173 155 0.270465
w 174 173 -155 0.953263
w 174 -173 155 0.405914
w 174 -173 -155 0.863029
w 175 174 156 0
w 175 174 -156 0
w 175 -174 156 1
w 175 -174 -156 0
w 176 175 157 0
w 176 175 -157 1
w 176 -175 157 1
w 176 -175 -157 0
w 177 176 158 0.385566
w 177 176 -158 0.175785
w 177 -176 158 0.62269
w 177 -176 -158 0.287549
w 178 177 159 0.482568
w 178 177 -159 0.421862
w 178 -177 159 0.893556
w 178 -177 -159 0.584438
w 179 178 160 0.643502
w 179 178 -160 0.819235
w 179 -178 160 0.671039
w 179 -178 -160 0.545515
w 180 179 161 1
w 180 179 -161 1
w 180 -179 161 1
w 180 -179 -161 0
w 181 180 162 0.162456
w 181 180 -162 0.650517
w 181 -180 162 0.599421
w 181 -180 -162 0.809048
w 182 181 163 1
w 182 181 -163 1
w 182 -181 163 0
w 182 -181 -163 0
w 183 182 164 0
w 183 182 -164 0
w 183 -182 164 0
w 183 -182 -164 1
w 184 183 165 0.18103
w 184 183 -165 0.981047
w 184 -183 165 0.0754392
w 184 -183 -165 0.0745866
w 185 184 166 0.059914
w 185 184 -166 0.718089
w 185 -184 166 0.38472
w 185 -184 -166 0.730953
w 186 185 167 0
w 186 185 -167 1
w 186 -185 167 0
w 186 -185 -167 1
w 187 186 168 1
w 187 186 -168 1
w 187 -186 168 0
w 187 -186 -168 1
w 188 187 169 1
w 188 187 -169 0
w 188 -187 169 0
w 188 -187 -169 0
w 189 188 170 0
w 189 188 -170 0
w 189 -188 170 1
w 189 -188 -170 0
w 190 189 171 0.441649
w 190 189 -171 0.992571
w 190 -189 171 0.628943
w 190 -189 -171 0.517088
w 191 172 1
w 191 -172 0
w 192 191 173 0.785247
w 192 191 -173 0.579148
w 192 -191 173 0.307955
w 192 -191 -173 0.0488499
w 193 192 174 1
w 193 192 -174 1
w 193 -192 174 1
w 193 -192 -174 0
w 194 193 175 0.0109818
w 194 193 -175 0.973041
w 194 -193 175 0.245039
w 194 -193 -175 0.403946
w 195 194 176 1
w 195 194 -176 1
w 195 -194 176 0
w 195 -194 -176 0
w 196 195 177 0
w 196 195 -177 1
w 196 -195 177 0
w 196 -195 -177 1
w 197 196 178 0
w 197 196 -178 0
w 197 -196 178 1
w 197 -196 -178 0
w 198 197 179 0
w 198 197 -179 0
w 198 -197 179 1
w 198 -197 -179 0
w 199 198 180 0.381318
w 199 198 -180 0.301016
w 199 -198 180 0.187036
w 199 -198 -180 0.363022
w 200 199 181 0
w 200 199 -181 1
w 200 -199 181 1
w 200 -199 -181 0
w 201 200 182 0.119703
w 201 200 -182 0.83617
w 201 -200 182 0.171499
w 201 -200 -182 0.228371
w 202 201 183 1
w 202 201 -183 1
w 202 -201 183 1
w 202 -201 -183 0
w 203 202 184 1
w 203 202 -184 0
w 203 -202 184 1
w 203 -202 -184 1
w 204 203 185 0.31569
w 204 203 -185 0.137659
w 204 -203 185 0.491886
w 204 -203 -185 0.488272
w 205 204 186 0.873204
w 205 204 -186 0.789288
w 205 -204 186 0.0846645
w 205 -204 -186 0.236226
w 206 205 187 0.282682
w 206 205 -187 0.572289
w 206 -205 187 0.410411
w 206 -205 -187 0.884645
w 207 206 188 0
w 207 206 -188 0
w 207 -206 188 1
w 207 -206 -188 0
w 208 207 189 0
w 208 207 -189 1
w 208 -207 189 0
w 208 -207 -189 1
w 209 208 190 1
w 209 208 -190 0
w 209 -208 190 1
w 209 -208 -190 0
w 210 191 1
w 210 -191 0
w 211 210 192 0.192533
w 211 210 -192 0.909407
w 211 -210 192 0.455733
w 211 -210 -192 0.0901613
w 212 211 193 0.245021
w 212 211 -193 0.174826
w 212 -211 193 0.0188368
w 212 -211 -193 0.222351
w 213 212 194 1
w 213 212 -194 0
w 213 -212 194 1
w 213 -212 -194 0
w 214 213 195 0
w 214 213 -195 0
w 214 -213 195 1
w 214 -213 -195 1
w 215 214 196 1
w 215 214 -196 0
w 215 -214 196 1
w 215 -214 -196 1
w 216 215 197 1
w 216 215 -197 0
w 216 -215 197 0
w 216 -215 -197 0
w 217 216 198 0
w 217 216 -198 0
w 217 -216 198 1
w 217 -216 -198 1
w 218 217 199 0.927656
w 218 217 -199 0.473309
w 218 -217 199 0.0248106
w 218 -217 -199 0.946492
w 219 218 200 0.482318
w 219 218 -200 0.537618
w 219 -218 200 0.328422
w 219 -218 -200 0.824471
w 220 219 201 1
w 220 219 -201 1
w 220 -219 201 0
w 220 -219 -201 1
w 221 220 202 0.836483
w 221 220 -202 0.217616
w 221 -220 202 0.66812
w 221 -220 -202 0.677323
w 222 221 203 0
w 222 221 -203 0
w 222 -221 203 1
w 222 -221 -203 0
w 223 222 204 0.423422
w 223 222 -204 0.399098
w 223 -222 204 0.516855
w 223 -222 -204 0.568467
w 224 223 205 0.366839
w 224 223 -205 0.496122
w 224 -223 205 0.100696
w 224 -223 -205 0.39165
w 225 224 206 1
w 225 224 -206 1
w 225 -224 206 1
w 225 -224 -206 0
w 226 225 207 0.298234
w 226 225 -207 0.616078
w 226 -225 207 0.585879
w 226 -225 -207 0.757374
w 227 226 208 1
w 227 226 -208 1
w 227 -226 208 0
w 227 -226 -208 0
w 228 227 209 1
w 228 227 -209 0
w 228 -227 209 0
w 228 -227 -209 0
w 229 210 0.217951
w 229 -210 0.227226
w 230 229 211 1
w 230 229 -211 1
w 230 -229 211 1
w 230 -229 -211 0
w 231 230 212 1
w 231 230 -212 1
w 231 -230 212 0
w 231 -230 -212 0
w 232 231 213 1
w 232 231 -213 0
w 232 -231 213 0
w 232 -231 -213 1
w 233 232 214 1
w 233 232 -214 0
w 233 -232 214 0
w 233 -232 -214 1
w 234 233 215 1
w 234 233 -215 1
w 234 -233 215 1
w 234 -233 -215 0
w 235 234 216 1
w 235 234 -216 1
w 235 -234 216 1
w 235 -234 -216 0
w 236 235 217 1
w 236 235 -217 1
w 236 -235 217 1
w 236 -235 -217 0
w 237 236 218 0
w 237 236 -218 1
w 237 -236 218 1
w 237 -236 -218 1
w 238 237 219 1
w 238 237 -219 0
w 238 -237 219 0
w 238 -237 -219 0
w 239 238 220 1
w 239 238 -220 0
w 239 -238 220 1
w 239 -238 -220 0
w 240 239 221 0.401729
w 240 239 -221 0.381223
w 240 -239 221 0.582338
w 240 -239 -221 0.633831
w 241 240 222 0.678566
w 241 240 -222 0.669738
w 241 -240 222 0.039286
w 241 -240 -222 0.992745
w 242 241 223 0.28231
w 242 241 -223 0.0417303
w 242 -241 223 0.991696
w 242 -241 -223 0.228414
w 243 242 224 1
w 243 242 -224 0
w 243 -242 224 1
w 243 -242 -224 1
w 244 243 225 0
w 244 243 -225 0
w 244 -243 225 1
w 244 -243 -225 0
w 245 244 226 1
w 245 244 -226 0
w 245 -244 226 1
w 245 -244 -226 0
w 246 245 227 0.569703
w 246 245 -227 0.00653092
w 246 -245 227 0.974606
w 246 -245 -227 0.152041
w 247 246 228 0.846562
w 247 246 -228 0.830607
w 247 -246 228 0.310101
w 247 -246 -228 0.885848
w 248 229 0.242972
w 248 -229 0.168158
w 249 248 230 0.234668
w 249 248 -230 0.396572
w 249 -248 230 0.0574431
w 249 -248 -230 0.577004
w 250 249 231 1
w 250 249 -231 0
w 250 -249 231 0
w 250 -249 -231 0
w 251 250 232 1
w 251 250 -232 0
w 251 -250 232 1
w 251 -250 -232 1
w 252 251 233 0.530375
w 252 251 -233 0.911785
w 252 -251 233 0.463695
w 252 -251 -233 0.536906
w 253 252 234 0.615736
w 253 252 -234 0.177269
w 253 -252 234 0.732953
w 253 -252 -234 0.446343
w 254 253 235 0
w 254 253 -235 1
w 254 -253 235 1
w 254 -253 -235 0
w 255 254 236 0
w 255 254 -236 0
w 255 -254 236 1
w 255 -254 -236 1
w 256 255 237 0.0859501
w 256 255 -237 0.546423
w 256 -255 237 0.261577
w 256 -255 -237 0.827151
w 257 256 238 0.367994
w 257 256 -238 0.492715
w 257 -256 238 0.0492944
w 257 -256 -238 0.293567
w 258 257 239 0.943287
w 258 257 -239 0.823942
w 258 -257 239 0.722903
w 258 -257 -239 0.406982
w 259 258 240 0
w 259 258 -240 1
w 259 -258 240 1
w 259 -258 -240 0
w 260 259 241 1
w 260 259 -241 0
w 260 -259 241 0
w 260 -259 -241 0
w 261 260 242 0.873537
w 261 260 -242 0.720835
w 261 -260 242 0.931536
w 261 -260 -242 0.0657597
w 262 261 243 1
w 262 261 -243 0
w 262 -261 243 1
w 262 -261 -243 1
w 263 262 244 0.587245
w 263 262 -244 0.119506
w 263 -262 244 0.471576
w 263 -262 -244 0.636539
w 264 263 245 0
w 264 263 -245 0
w 264 -263 245 1
w 264 -263 -245 1
w 265 264 246 0.597862
w 265 264 -246 0.61489
w 265 -264 246 0.0095271
w 265 -264 -246 0.135979
w 266 265 247 0.478589
w 266 265 -247 0.161464
w 266 -265 247 0.918182
w 266 -265 -247 0.217347
w 267 248 0.666188
w 267 -248 0.0908846
w 268 267 249 0.597724
w 268 267 -249 0.156644
w 268 -267 249 0.900973
w 268 -267 -249 0.0876588
w 269 268 250 0
w 269 268 -250 1
w 269 -268 250 0
w 269 -268 -250 1
w 270 269 251 0.758791
w 270 269 -251 0.934027
w 270 -269 251 0.371748
w 270 -269 -251 0.0414846
w 271 270 252 0.608762
w 271 270 -252 0.0470812
w 271 -270 252 0.500662
w 271 -270 -252 0.206625
w 272 271 253 0.510189
w 272 271 -253 0.342603
w 272 -271 253 0.619106
w 272 -271 -253 0.988778
w 273 272 254 0.537289
w 273 272 -254 0.206125
w 273 -272 254 0.421358
w 273 -272 -254 0.203476
w 274 273 255 1
w 274 273 -255 1
w 274 -273 255 0
w 274 -273 -255 1
w 275 274 256 0.762008
w 275 274 -256 0.6707
w 275 -274 256 0.72803
w 275 -274 -256 0.0492227
w 276 275 257 0.686706
w 276 275 -257 0.808013
w 276 -275 257 0.902215
w 276 -275 -257 0.0584542
w 277 276 258 0.416068
w 277 276 -258 0.667217
w 277 -276 258 0.896579
w 277 -276 -258 0.91673
w 278 277 259 0.55855
w 278 277 -259 0.426919
w 278 -277 259 0.216444
w 278 -277 -259 0.177657
w 279 278 260 0
w 279 278 -260 0
w 279 -278 260 1
w 279 -278 -260 0
w 280 279 261 0.918831
w 280 279 -261 0.201354
w 280 -279 261 0.719622
w 280 -279 -261 0.372485
w 281 280 262 0
w 281 280 -262 1
w 281 -280 262 0
w 281 -280 -262 0
w 282 281 263 1
w 282 281 -263 0
w 282 -281 263 0
w 282 -281 -263 1
w 283 282 264 0
w 283 282 -264 0
w 283 -282 264 1
w 283 -282 -264 1
w 284 283 265 0
w 284 283 -265 1
w 284 -283 265 1
w 284 -283 -265 0
w 285 284 266 1
w 285 284 -266 0
w 285 -284 266 0
w 285 -284 -266 0
w 286 267 0.10738
w 286 -267 0.418979
w 287 286 268 0.827002
w 287 286 -268 0.791465
w 287 -286 268 0.064721
w 287 -286 -268 0.435483
w 288 287 269 0.897231
w 288 287 -269 0.771994
w 288 -287 269 0.109674
w 288 -287 -269 0.69793
w 289 288 270 0.101404
w 289 288 -270 0.400843
w 289 -288 270 0.876882
w 289 -288 -270 0.942631
w 290 289 271 0.625769
w 290 289 -271 0.680438
w 290 -289 271 0.555534
w 290 -289 -271 0.248498
w 291 290 272 0.0181639
w 291 290 -272 0.0876712
w 291 -290 272 0.450808
w 291 -290 -272 0.89649
w 292 291 273 0.639766
w 292 291 -273 0.396637
w 292 -291 273 0.348912
w 292 -291 -273 0.747147
w 293 292 274 0.251823
w 293 292 -274 0.574149
w 293 -292 274 0.607081
w 293 -292 -274 0.316544
w 294 293 275 1
w 294 293 -275 0
w 294 -293 275 1
w 294 -293 -275 0
w 295 294 276 0.576838
w 295 294 -276 0.744117
w 295 -294 276 0.312548
w 295 -294 -276 0.453719
w 296 295 277 0.832371
w 296 295 -277 0.0794888
w 296 -295 277 0.367186
w 296 -295 -277 0.387906
w 297 296 278 1
w 297 296 -278 0
w 297 -296 278 0
w 297 -296 -278 0
w 298 297 279 1
w 298 297 -279 0
w 298 -297 279 0
w 298 -297 -279 1
w 299 298 280 0
w 299 298 -280 1
w 299 -298 280 1
w 299 -298 -280 1
w 300 299 281 0.654934
w 300 299 -281 0.194068
w 300 -299 281 0.547109
w 300 -299 -281 0.297647
w 301 300 282 1
w 301 300 -282 1
w 301 -300 282 0
w 301 -300 -282 1
w 302 301 283 0
w 302 301 -283 0
w 302 -301 283 1
w 302 -301 -283 0
w 303 302 284 1
w 303 302 -284 0
w 303 -302 284 1
w 303 -302 -284 1
w 304 303 285 0
w 304 303 -285 1
w 304 -303 285 1
w 304 -303 -285 0
w 305 286 0.539491
w 305 -286 0.606571
w 306 305 287 0.519784
w 306 305 -287 0.372053
w 306 -305 287 0.338065
w 306 -305 -287 0.713852
w 307 306 288 0.635712
w 307 306 -288 0.819625
w 307 -306 288 0.0431095
w 307 -306 -288 0.677475
w 308 307 289 0
w 308 307 -289 0
w 308 -307 289 1
w 308 -307 -289 0
w 309 308 290 0
w 309 308 -290 1
w 309 -308 290 0
w 309 -308 -290 1
w 310 309 291 1
w 310 309 -291 1
w 310 -309 291 0
w 310 -309 -291 1
w 311 310 292 1
w 311 310 -292 0
w 311 -310 292 1
w 311 -310 -292 1
w 312 311 293 0.0627049
w 312 311 -293 0.674192
w 312 -311 293 0.147984
w 312 -311 -293 0.776557
w 313 312 294 0.783696
w 313 312 -294 0.596182
w 313 -312 294 0.636465
w 313 -312 -294 0.461171
w 314 313 295 0.25724
w 314 313 -295 0.867158
w 314 -313 295 0.322765
w 314 -313 -295 0.535171
w 315 314 296 0
w 315 314 -296 0
w 315 -314 296 0
w 315 -314 -296 1
w 316 315 297 1
w 316 315 -297 0
w 316 -315 297 0
w 316 -315 -297 1
w 317 316 298 0.593234
w 317 316 -298 0.0264472
w 317 -316 298 0.83337
w 317 -316 -298 0.136155
w 318 317 299 1
w 318 317 -299 1
w 318 -317 299 0
w 318 -317 -299 1
w 319 318 300 0.596134
w 319 318 -300 0.57497
w 319 -318 300 0.571599
w 319 -318 -300 0.232598
w 320 319 301 0
w 320 319 -301 1
w 320 -319 301 0
w 320 -319 -301 1
w 321 320 302 0
w 321 320 -302 0
w 321 -320 302 1
w 321 -320 -302 0
w 322 321 303 0.285371
w 322 321 -303 0.0683778
w 322 -321 303 0.941424
w 322 -321 -303 0.875176
w 323 322 304 1
w 323 322 -304 0
w 323 -322 304 1
w 323 -322 -304 0
w 324 305 0.75429
w 324 -305 0.124665
w 325 324 306 0.757069
w 325 324 -306 0.915939
w 325 -324 306 0.778842
w 325 -324 -306 0.353202
w 326 325 307 0
w 326 325 -307 1
w 326 -325 307 0
w 326 -325 -307 0
w 327 326 308 1
w 327 326 -308 0
w 327 -326 308 0
w 327 -326 -308 0
w 328 327 309 0.284835
w 328 327 -309 0.463548
w 328 -327 309 0.209273
w 328 -327 -309 0.353213
w 329 328 310 1
w 329 328 -310 0
w 329 -328 310 1
w 329 -328 -310 1
w 330 329 311 0.157425
w 330 329 -311 0.932464
w 330 -329 311 0.659019
w 330 -329 -311 0.96085
w 331 330 312 0.574958
w 331 330 -312 0.739692
w 331 -330 312 0.0427349
w 331 -330 -312 0.0658661
w 332 331 313 0
w 332 331 -313 0
w 332 -331 313 0
w 332 -331 -313 1
w 333 332 314 0
w 333 332 -314 1
w 333 -332 314 1
w 333 -332 -314 0
w 334 333 315 0.0105865
w 334 333 -315 0.457666
w 334 -333 315 0.937999
w 334 -333 -315 0.363799
w 335 334 316 0.0224484
w 335 334 -316 0.116269
w 335 -334 316 0.915617
w 335 -334 -316 0.575308
w 336 335 317 1
w 336 335 -317 0
w 336 -335 317 1
w 336 -335 -317 1
w 337 336 318 0.683948
w 337 336 -318 0.433274
w 337 -336 318 0.959174
w 337 -336 -318 0.749814
w 338 337 319 0.587709
w 338 337 -319 0.342729
w 338 -337 319 0.369709
w 338 -337 -319 0.291884
w 339 338 320 1
w 339 338 -320 1
w 339 -338 320 0
w 339 -338 -320 0
w 340 339 321 0.10233
w 340 339 -321 0.152455
w 340 -339 321 0.763431
w 340 -339 -321 0.466129
w 341 340 322 0
w 341 340 -322 0
w 341 -340 322 1
w 341 -340 -322 1
w 342 341 323 0.380682
w 342 341 -323 0.0939205
w 342 -341 323 0.103747
w 342 -341 -323 0.489672
w 343 324 0.0201853
w 343 -324 0.17362
w 344 343 325 1
w 344 343 -325 0
w 344 -343 325 1
w 344 -343 -325 0
w 345 344 326 0
w 345 344 -326 0
w 345 -344 326 1
w 345 -344 -326 1
w 346 345 327 0.723899
w 346 345 -327 0.509356
w 346 -345 327 0.781091
w 346 -345 -327 0.826229
w 347 346 328 0.544522
w 347 346 -328 0.292359
w 347 -346 328 0.676904
w 347 -346 -328 0.330401
w 348 347 329 0.607615
w 348 347 -329 0.691589
w 348 -347 329 0.751597
w 348 -347 -329 0.988297
w 349 348 330 0.855343
w 349 348 -330 0.477969
w 349 -348 330 0.573013
w 349 -348 -330 0.875528
w 350 349 331 0.79379
w 350 349 -331 0.854888
w 350 -349 331 0.575024
w 350 -349 -331 0.537975
w 351 350 332 0
w 351 350 -332 0
w 351 -350 332 0
w 351 -350 -332 1
w 352 351 333 1
w 352 351 -333 1
w 352 -351 333 0
w 352 -351 -333 1
w 353 352 334 0.562179
w 353 352 -334 0.315831
w 353 -352 334 0.314507
w 353 -352 -334 0.892581
w 354 353 335 0
w 354 353 -335 1
w 354 -353 335 0
w 354 -353 -335 0
w 355 354 336 0.388387
w 355 354 -336 0.942692
w 355 -354 336 0.673055
w 355 -354 -336 0.0399756
w 356 355 337 0.527943
w 356 355 -337 0.614999
w 356 -355 337 0.274458
w 356 -355 -337 0.949899
w 357 356 338 0
w 357 356 -338 0
w 357 -356 338 0
w 357 -356 -338 1
w 358 357 339 1
w 358 357 -339 0
w 358 -357 339 0
w 358 -357 -339 1
w 359 358 340 1
w 359 358 -340 1
w 359 -358 340 0
w 359 -358 -340 0
w 360 359 341 1
w 360 359 -341 1
w 360 -359 341 1
w 360 -359 -341 0
w 361 360 342 1
w 361 360 -342 1
w 361 -360 342 1
w 361 -360 -342 0